p edge	100	1766
e	1	2
e	1	3
e	1	4
e	1	5
e	1	6
e	1	7
e	1	8
e	1	9
e	1	10
e	1	11
e	1	12
e	1	13
e	1	14
e	1	15
e	1	16
e	1	17
e	1	18
e	1	19
e	1	20
e	1	21
e	1	22
e	1	23
e	1	24
e	1	25
e	1	26
e	1	27
e	1	28
e	2	3
e	2	4
e	2	5
e	2	6
e	2	7
e	2	8
e	2	9
e	2	10
e	2	11
e	2	12
e	2	13
e	2	14
e	2	15
e	2	16
e	2	17
e	2	18
e	2	19
e	2	20
e	2	21
e	2	22
e	2	23
e	2	24
e	2	25
e	2	26
e	2	27
e	2	28
e	3	4
e	3	5
e	3	6
e	3	7
e	3	8
e	3	9
e	3	10
e	3	11
e	3	12
e	3	13
e	3	14
e	3	15
e	3	16
e	3	17
e	3	18
e	3	19
e	3	20
e	3	21
e	3	22
e	3	23
e	3	24
e	3	25
e	3	26
e	3	27
e	3	28
e	4	5
e	4	6
e	4	7
e	4	8
e	4	9
e	4	10
e	4	11
e	4	12
e	4	13
e	4	14
e	4	15
e	4	16
e	4	17
e	4	18
e	4	19
e	4	20
e	4	21
e	4	22
e	4	23
e	4	24
e	4	25
e	4	26
e	4	27
e	4	28
e	5	6
e	5	7
e	5	8
e	5	9
e	5	10
e	5	11
e	5	12
e	5	13
e	5	14
e	5	15
e	5	16
e	5	29
e	5	30
e	5	31
e	5	32
e	5	33
e	5	34
e	5	35
e	5	36
e	5	37
e	5	38
e	5	39
e	5	40
e	6	7
e	6	8
e	6	9
e	6	10
e	6	11
e	6	12
e	6	13
e	6	14
e	6	15
e	6	16
e	6	29
e	6	30
e	6	31
e	6	32
e	6	33
e	6	34
e	6	35
e	6	36
e	6	37
e	6	38
e	6	39
e	6	40
e	7	8
e	7	9
e	7	10
e	7	11
e	7	12
e	7	13
e	7	14
e	7	15
e	7	16
e	7	29
e	7	30
e	7	31
e	7	32
e	7	33
e	7	34
e	7	35
e	7	36
e	7	37
e	7	38
e	7	39
e	7	40
e	8	9
e	8	10
e	8	11
e	8	12
e	8	13
e	8	14
e	8	15
e	8	16
e	8	29
e	8	30
e	8	31
e	8	32
e	8	33
e	8	34
e	8	35
e	8	36
e	8	37
e	8	38
e	8	39
e	8	40
e	9	10
e	9	11
e	9	12
e	9	13
e	9	14
e	9	15
e	9	16
e	9	17
e	9	18
e	9	19
e	9	20
e	9	21
e	9	22
e	9	23
e	9	24
e	9	29
e	9	30
e	9	31
e	9	32
e	9	33
e	9	34
e	9	35
e	9	36
e	9	41
e	9	42
e	9	43
e	9	44
e	9	45
e	9	46
e	9	47
e	9	48
e	9	49
e	9	50
e	9	51
e	9	52
e	10	11
e	10	12
e	10	13
e	10	14
e	10	15
e	10	16
e	10	17
e	10	18
e	10	19
e	10	20
e	10	21
e	10	22
e	10	23
e	10	24
e	10	29
e	10	30
e	10	31
e	10	32
e	10	33
e	10	34
e	10	35
e	10	36
e	10	41
e	10	42
e	10	43
e	10	44
e	10	45
e	10	46
e	10	47
e	10	48
e	10	49
e	10	50
e	10	51
e	10	52
e	11	12
e	11	13
e	11	14
e	11	15
e	11	16
e	11	17
e	11	18
e	11	19
e	11	20
e	11	21
e	11	22
e	11	23
e	11	24
e	11	29
e	11	30
e	11	31
e	11	32
e	11	33
e	11	34
e	11	35
e	11	36
e	11	41
e	11	42
e	11	43
e	11	44
e	11	45
e	11	46
e	11	47
e	11	48
e	11	49
e	11	50
e	11	51
e	11	52
e	12	13
e	12	14
e	12	15
e	12	16
e	12	17
e	12	18
e	12	19
e	12	20
e	12	21
e	12	22
e	12	23
e	12	24
e	12	29
e	12	30
e	12	31
e	12	32
e	12	33
e	12	34
e	12	35
e	12	36
e	12	41
e	12	42
e	12	43
e	12	44
e	12	45
e	12	46
e	12	47
e	12	48
e	12	49
e	12	50
e	12	51
e	12	52
e	13	14
e	13	15
e	13	16
e	13	21
e	13	22
e	13	23
e	13	24
e	13	25
e	13	26
e	13	27
e	13	28
e	13	33
e	13	34
e	13	35
e	13	36
e	13	37
e	13	38
e	13	39
e	13	40
e	13	45
e	13	46
e	13	47
e	13	48
e	13	49
e	13	50
e	13	51
e	13	52
e	13	53
e	13	54
e	13	55
e	13	56
e	14	15
e	14	16
e	14	21
e	14	22
e	14	23
e	14	24
e	14	25
e	14	26
e	14	27
e	14	28
e	14	33
e	14	34
e	14	35
e	14	36
e	14	37
e	14	38
e	14	39
e	14	40
e	14	45
e	14	46
e	14	47
e	14	48
e	14	49
e	14	50
e	14	51
e	14	52
e	14	53
e	14	54
e	14	55
e	14	56
e	15	16
e	15	21
e	15	22
e	15	23
e	15	24
e	15	25
e	15	26
e	15	27
e	15	28
e	15	33
e	15	34
e	15	35
e	15	36
e	15	37
e	15	38
e	15	39
e	15	40
e	15	45
e	15	46
e	15	47
e	15	48
e	15	49
e	15	50
e	15	51
e	15	52
e	15	53
e	15	54
e	15	55
e	15	56
e	16	21
e	16	22
e	16	23
e	16	24
e	16	25
e	16	26
e	16	27
e	16	28
e	16	33
e	16	34
e	16	35
e	16	36
e	16	37
e	16	38
e	16	39
e	16	40
e	16	45
e	16	46
e	16	47
e	16	48
e	16	49
e	16	50
e	16	51
e	16	52
e	16	53
e	16	54
e	16	55
e	16	56
e	17	18
e	17	19
e	17	20
e	17	21
e	17	22
e	17	23
e	17	24
e	17	29
e	17	30
e	17	31
e	17	32
e	17	41
e	17	42
e	17	43
e	17	44
e	17	45
e	17	46
e	17	47
e	17	48
e	17	57
e	17	58
e	17	59
e	17	60
e	17	61
e	17	62
e	17	63
e	17	64
e	17	65
e	17	66
e	17	67
e	17	68
e	18	19
e	18	20
e	18	21
e	18	22
e	18	23
e	18	24
e	18	29
e	18	30
e	18	31
e	18	32
e	18	41
e	18	42
e	18	43
e	18	44
e	18	45
e	18	46
e	18	47
e	18	48
e	18	57
e	18	58
e	18	59
e	18	60
e	18	61
e	18	62
e	18	63
e	18	64
e	18	65
e	18	66
e	18	67
e	18	68
e	19	20
e	19	21
e	19	22
e	19	23
e	19	24
e	19	29
e	19	30
e	19	31
e	19	32
e	19	41
e	19	42
e	19	43
e	19	44
e	19	45
e	19	46
e	19	47
e	19	48
e	19	57
e	19	58
e	19	59
e	19	60
e	19	61
e	19	62
e	19	63
e	19	64
e	19	65
e	19	66
e	19	67
e	19	68
e	20	21
e	20	22
e	20	23
e	20	24
e	20	29
e	20	30
e	20	31
e	20	32
e	20	41
e	20	42
e	20	43
e	20	44
e	20	45
e	20	46
e	20	47
e	20	48
e	20	57
e	20	58
e	20	59
e	20	60
e	20	61
e	20	62
e	20	63
e	20	64
e	20	65
e	20	66
e	20	67
e	20	68
e	21	22
e	21	23
e	21	24
e	21	25
e	21	26
e	21	27
e	21	28
e	21	33
e	21	34
e	21	35
e	21	36
e	21	45
e	21	46
e	21	47
e	21	48
e	21	49
e	21	50
e	21	51
e	21	52
e	21	61
e	21	62
e	21	63
e	21	64
e	21	65
e	21	66
e	21	67
e	21	68
e	21	69
e	21	70
e	21	71
e	21	72
e	22	23
e	22	24
e	22	25
e	22	26
e	22	27
e	22	28
e	22	33
e	22	34
e	22	35
e	22	36
e	22	45
e	22	46
e	22	47
e	22	48
e	22	49
e	22	50
e	22	51
e	22	52
e	22	61
e	22	62
e	22	63
e	22	64
e	22	65
e	22	66
e	22	67
e	22	68
e	22	69
e	22	70
e	22	71
e	22	72
e	23	24
e	23	25
e	23	26
e	23	27
e	23	28
e	23	33
e	23	34
e	23	35
e	23	36
e	23	45
e	23	46
e	23	47
e	23	48
e	23	49
e	23	50
e	23	51
e	23	52
e	23	61
e	23	62
e	23	63
e	23	64
e	23	65
e	23	66
e	23	67
e	23	68
e	23	69
e	23	70
e	23	71
e	23	72
e	24	25
e	24	26
e	24	27
e	24	28
e	24	33
e	24	34
e	24	35
e	24	36
e	24	45
e	24	46
e	24	47
e	24	48
e	24	49
e	24	50
e	24	51
e	24	52
e	24	61
e	24	62
e	24	63
e	24	64
e	24	65
e	24	66
e	24	67
e	24	68
e	24	69
e	24	70
e	24	71
e	24	72
e	25	26
e	25	27
e	25	28
e	25	37
e	25	38
e	25	39
e	25	40
e	25	49
e	25	50
e	25	51
e	25	52
e	25	53
e	25	54
e	25	55
e	25	56
e	25	65
e	25	66
e	25	67
e	25	68
e	25	69
e	25	70
e	25	71
e	25	72
e	25	73
e	25	74
e	25	75
e	25	76
e	26	27
e	26	28
e	26	37
e	26	38
e	26	39
e	26	40
e	26	49
e	26	50
e	26	51
e	26	52
e	26	53
e	26	54
e	26	55
e	26	56
e	26	65
e	26	66
e	26	67
e	26	68
e	26	69
e	26	70
e	26	71
e	26	72
e	26	73
e	26	74
e	26	75
e	26	76
e	27	28
e	27	37
e	27	38
e	27	39
e	27	40
e	27	49
e	27	50
e	27	51
e	27	52
e	27	53
e	27	54
e	27	55
e	27	56
e	27	65
e	27	66
e	27	67
e	27	68
e	27	69
e	27	70
e	27	71
e	27	72
e	27	73
e	27	74
e	27	75
e	27	76
e	28	37
e	28	38
e	28	39
e	28	40
e	28	49
e	28	50
e	28	51
e	28	52
e	28	53
e	28	54
e	28	55
e	28	56
e	28	65
e	28	66
e	28	67
e	28	68
e	28	69
e	28	70
e	28	71
e	28	72
e	28	73
e	28	74
e	28	75
e	28	76
e	29	30
e	29	31
e	29	32
e	29	33
e	29	34
e	29	35
e	29	36
e	29	41
e	29	42
e	29	43
e	29	44
e	29	45
e	29	46
e	29	47
e	29	48
e	29	77
e	29	78
e	29	79
e	29	80
e	29	81
e	29	82
e	29	83
e	29	84
e	29	85
e	29	86
e	29	87
e	29	88
e	30	31
e	30	32
e	30	33
e	30	34
e	30	35
e	30	36
e	30	41
e	30	42
e	30	43
e	30	44
e	30	45
e	30	46
e	30	47
e	30	48
e	30	77
e	30	78
e	30	79
e	30	80
e	30	81
e	30	82
e	30	83
e	30	84
e	30	85
e	30	86
e	30	87
e	30	88
e	31	32
e	31	33
e	31	34
e	31	35
e	31	36
e	31	41
e	31	42
e	31	43
e	31	44
e	31	45
e	31	46
e	31	47
e	31	48
e	31	77
e	31	78
e	31	79
e	31	80
e	31	81
e	31	82
e	31	83
e	31	84
e	31	85
e	31	86
e	31	87
e	31	88
e	32	33
e	32	34
e	32	35
e	32	36
e	32	41
e	32	42
e	32	43
e	32	44
e	32	45
e	32	46
e	32	47
e	32	48
e	32	77
e	32	78
e	32	79
e	32	80
e	32	81
e	32	82
e	32	83
e	32	84
e	32	85
e	32	86
e	32	87
e	32	88
e	33	34
e	33	35
e	33	36
e	33	37
e	33	38
e	33	39
e	33	40
e	33	45
e	33	46
e	33	47
e	33	48
e	33	49
e	33	50
e	33	51
e	33	52
e	33	81
e	33	82
e	33	83
e	33	84
e	33	85
e	33	86
e	33	87
e	33	88
e	33	89
e	33	90
e	33	91
e	33	92
e	34	35
e	34	36
e	34	37
e	34	38
e	34	39
e	34	40
e	34	45
e	34	46
e	34	47
e	34	48
e	34	49
e	34	50
e	34	51
e	34	52
e	34	81
e	34	82
e	34	83
e	34	84
e	34	85
e	34	86
e	34	87
e	34	88
e	34	89
e	34	90
e	34	91
e	34	92
e	35	36
e	35	37
e	35	38
e	35	39
e	35	40
e	35	45
e	35	46
e	35	47
e	35	48
e	35	49
e	35	50
e	35	51
e	35	52
e	35	81
e	35	82
e	35	83
e	35	84
e	35	85
e	35	86
e	35	87
e	35	88
e	35	89
e	35	90
e	35	91
e	35	92
e	36	37
e	36	38
e	36	39
e	36	40
e	36	45
e	36	46
e	36	47
e	36	48
e	36	49
e	36	50
e	36	51
e	36	52
e	36	81
e	36	82
e	36	83
e	36	84
e	36	85
e	36	86
e	36	87
e	36	88
e	36	89
e	36	90
e	36	91
e	36	92
e	37	38
e	37	39
e	37	40
e	37	49
e	37	50
e	37	51
e	37	52
e	37	53
e	37	54
e	37	55
e	37	56
e	37	85
e	37	86
e	37	87
e	37	88
e	37	89
e	37	90
e	37	91
e	37	92
e	37	93
e	37	94
e	37	95
e	37	96
e	38	39
e	38	40
e	38	49
e	38	50
e	38	51
e	38	52
e	38	53
e	38	54
e	38	55
e	38	56
e	38	85
e	38	86
e	38	87
e	38	88
e	38	89
e	38	90
e	38	91
e	38	92
e	38	93
e	38	94
e	38	95
e	38	96
e	39	40
e	39	49
e	39	50
e	39	51
e	39	52
e	39	53
e	39	54
e	39	55
e	39	56
e	39	85
e	39	86
e	39	87
e	39	88
e	39	89
e	39	90
e	39	91
e	39	92
e	39	93
e	39	94
e	39	95
e	39	96
e	40	49
e	40	50
e	40	51
e	40	52
e	40	53
e	40	54
e	40	55
e	40	56
e	40	85
e	40	86
e	40	87
e	40	88
e	40	89
e	40	90
e	40	91
e	40	92
e	40	93
e	40	94
e	40	95
e	40	96
e	41	42
e	41	43
e	41	44
e	41	45
e	41	46
e	41	47
e	41	48
e	41	57
e	41	58
e	41	59
e	41	60
e	41	61
e	41	62
e	41	63
e	41	64
e	41	77
e	41	78
e	41	79
e	41	80
e	41	81
e	41	82
e	41	83
e	41	84
e	41	97
e	41	98
e	41	99
e	41	100
e	42	43
e	42	44
e	42	45
e	42	46
e	42	47
e	42	48
e	42	57
e	42	58
e	42	59
e	42	60
e	42	61
e	42	62
e	42	63
e	42	64
e	42	77
e	42	78
e	42	79
e	42	80
e	42	81
e	42	82
e	42	83
e	42	84
e	42	97
e	42	98
e	42	99
e	42	100
e	43	44
e	43	45
e	43	46
e	43	47
e	43	48
e	43	57
e	43	58
e	43	59
e	43	60
e	43	61
e	43	62
e	43	63
e	43	64
e	43	77
e	43	78
e	43	79
e	43	80
e	43	81
e	43	82
e	43	83
e	43	84
e	43	97
e	43	98
e	43	99
e	43	100
e	44	45
e	44	46
e	44	47
e	44	48
e	44	57
e	44	58
e	44	59
e	44	60
e	44	61
e	44	62
e	44	63
e	44	64
e	44	77
e	44	78
e	44	79
e	44	80
e	44	81
e	44	82
e	44	83
e	44	84
e	44	97
e	44	98
e	44	99
e	44	100
e	45	46
e	45	47
e	45	48
e	45	49
e	45	50
e	45	51
e	45	52
e	45	61
e	45	62
e	45	63
e	45	64
e	45	65
e	45	66
e	45	67
e	45	68
e	45	81
e	45	82
e	45	83
e	45	84
e	45	85
e	45	86
e	45	87
e	45	88
e	45	97
e	45	98
e	45	99
e	45	100
e	46	47
e	46	48
e	46	49
e	46	50
e	46	51
e	46	52
e	46	61
e	46	62
e	46	63
e	46	64
e	46	65
e	46	66
e	46	67
e	46	68
e	46	81
e	46	82
e	46	83
e	46	84
e	46	85
e	46	86
e	46	87
e	46	88
e	46	97
e	46	98
e	46	99
e	46	100
e	47	48
e	47	49
e	47	50
e	47	51
e	47	52
e	47	61
e	47	62
e	47	63
e	47	64
e	47	65
e	47	66
e	47	67
e	47	68
e	47	81
e	47	82
e	47	83
e	47	84
e	47	85
e	47	86
e	47	87
e	47	88
e	47	97
e	47	98
e	47	99
e	47	100
e	48	49
e	48	50
e	48	51
e	48	52
e	48	61
e	48	62
e	48	63
e	48	64
e	48	65
e	48	66
e	48	67
e	48	68
e	48	81
e	48	82
e	48	83
e	48	84
e	48	85
e	48	86
e	48	87
e	48	88
e	48	97
e	48	98
e	48	99
e	48	100
e	49	50
e	49	51
e	49	52
e	49	53
e	49	54
e	49	55
e	49	56
e	49	65
e	49	66
e	49	67
e	49	68
e	49	69
e	49	70
e	49	71
e	49	72
e	49	85
e	49	86
e	49	87
e	49	88
e	49	89
e	49	90
e	49	91
e	49	92
e	50	51
e	50	52
e	50	53
e	50	54
e	50	55
e	50	56
e	50	65
e	50	66
e	50	67
e	50	68
e	50	69
e	50	70
e	50	71
e	50	72
e	50	85
e	50	86
e	50	87
e	50	88
e	50	89
e	50	90
e	50	91
e	50	92
e	51	52
e	51	53
e	51	54
e	51	55
e	51	56
e	51	65
e	51	66
e	51	67
e	51	68
e	51	69
e	51	70
e	51	71
e	51	72
e	51	85
e	51	86
e	51	87
e	51	88
e	51	89
e	51	90
e	51	91
e	51	92
e	52	53
e	52	54
e	52	55
e	52	56
e	52	65
e	52	66
e	52	67
e	52	68
e	52	69
e	52	70
e	52	71
e	52	72
e	52	85
e	52	86
e	52	87
e	52	88
e	52	89
e	52	90
e	52	91
e	52	92
e	53	54
e	53	55
e	53	56
e	53	69
e	53	70
e	53	71
e	53	72
e	53	73
e	53	74
e	53	75
e	53	76
e	53	89
e	53	90
e	53	91
e	53	92
e	53	93
e	53	94
e	53	95
e	53	96
e	54	55
e	54	56
e	54	69
e	54	70
e	54	71
e	54	72
e	54	73
e	54	74
e	54	75
e	54	76
e	54	89
e	54	90
e	54	91
e	54	92
e	54	93
e	54	94
e	54	95
e	54	96
e	55	56
e	55	69
e	55	70
e	55	71
e	55	72
e	55	73
e	55	74
e	55	75
e	55	76
e	55	89
e	55	90
e	55	91
e	55	92
e	55	93
e	55	94
e	55	95
e	55	96
e	56	69
e	56	70
e	56	71
e	56	72
e	56	73
e	56	74
e	56	75
e	56	76
e	56	89
e	56	90
e	56	91
e	56	92
e	56	93
e	56	94
e	56	95
e	56	96
e	57	58
e	57	59
e	57	60
e	57	61
e	57	62
e	57	63
e	57	64
e	57	77
e	57	78
e	57	79
e	57	80
e	57	97
e	57	98
e	57	99
e	57	100
e	58	59
e	58	60
e	58	61
e	58	62
e	58	63
e	58	64
e	58	77
e	58	78
e	58	79
e	58	80
e	58	97
e	58	98
e	58	99
e	58	100
e	59	60
e	59	61
e	59	62
e	59	63
e	59	64
e	59	77
e	59	78
e	59	79
e	59	80
e	59	97
e	59	98
e	59	99
e	59	100
e	60	61
e	60	62
e	60	63
e	60	64
e	60	77
e	60	78
e	60	79
e	60	80
e	60	97
e	60	98
e	60	99
e	60	100
e	61	62
e	61	63
e	61	64
e	61	65
e	61	66
e	61	67
e	61	68
e	61	81
e	61	82
e	61	83
e	61	84
e	61	97
e	61	98
e	61	99
e	61	100
e	62	63
e	62	64
e	62	65
e	62	66
e	62	67
e	62	68
e	62	81
e	62	82
e	62	83
e	62	84
e	62	97
e	62	98
e	62	99
e	62	100
e	63	64
e	63	65
e	63	66
e	63	67
e	63	68
e	63	81
e	63	82
e	63	83
e	63	84
e	63	97
e	63	98
e	63	99
e	63	100
e	64	65
e	64	66
e	64	67
e	64	68
e	64	81
e	64	82
e	64	83
e	64	84
e	64	97
e	64	98
e	64	99
e	64	100
e	65	66
e	65	67
e	65	68
e	65	69
e	65	70
e	65	71
e	65	72
e	65	85
e	65	86
e	65	87
e	65	88
e	66	67
e	66	68
e	66	69
e	66	70
e	66	71
e	66	72
e	66	85
e	66	86
e	66	87
e	66	88
e	67	68
e	67	69
e	67	70
e	67	71
e	67	72
e	67	85
e	67	86
e	67	87
e	67	88
e	68	69
e	68	70
e	68	71
e	68	72
e	68	85
e	68	86
e	68	87
e	68	88
e	69	70
e	69	71
e	69	72
e	69	73
e	69	74
e	69	75
e	69	76
e	69	89
e	69	90
e	69	91
e	69	92
e	70	71
e	70	72
e	70	73
e	70	74
e	70	75
e	70	76
e	70	89
e	70	90
e	70	91
e	70	92
e	71	72
e	71	73
e	71	74
e	71	75
e	71	76
e	71	89
e	71	90
e	71	91
e	71	92
e	72	73
e	72	74
e	72	75
e	72	76
e	72	89
e	72	90
e	72	91
e	72	92
e	73	74
e	73	75
e	73	76
e	73	93
e	73	94
e	73	95
e	73	96
e	74	75
e	74	76
e	74	93
e	74	94
e	74	95
e	74	96
e	75	76
e	75	93
e	75	94
e	75	95
e	75	96
e	76	93
e	76	94
e	76	95
e	76	96
e	77	78
e	77	79
e	77	80
e	77	81
e	77	82
e	77	83
e	77	84
e	77	97
e	77	98
e	77	99
e	77	100
e	78	79
e	78	80
e	78	81
e	78	82
e	78	83
e	78	84
e	78	97
e	78	98
e	78	99
e	78	100
e	79	80
e	79	81
e	79	82
e	79	83
e	79	84
e	79	97
e	79	98
e	79	99
e	79	100
e	80	81
e	80	82
e	80	83
e	80	84
e	80	97
e	80	98
e	80	99
e	80	100
e	81	82
e	81	83
e	81	84
e	81	85
e	81	86
e	81	87
e	81	88
e	81	97
e	81	98
e	81	99
e	81	100
e	82	83
e	82	84
e	82	85
e	82	86
e	82	87
e	82	88
e	82	97
e	82	98
e	82	99
e	82	100
e	83	84
e	83	85
e	83	86
e	83	87
e	83	88
e	83	97
e	83	98
e	83	99
e	83	100
e	84	85
e	84	86
e	84	87
e	84	88
e	84	97
e	84	98
e	84	99
e	84	100
e	85	86
e	85	87
e	85	88
e	85	89
e	85	90
e	85	91
e	85	92
e	86	87
e	86	88
e	86	89
e	86	90
e	86	91
e	86	92
e	87	88
e	87	89
e	87	90
e	87	91
e	87	92
e	88	89
e	88	90
e	88	91
e	88	92
e	89	90
e	89	91
e	89	92
e	89	93
e	89	94
e	89	95
e	89	96
e	90	91
e	90	92
e	90	93
e	90	94
e	90	95
e	90	96
e	91	92
e	91	93
e	91	94
e	91	95
e	91	96
e	92	93
e	92	94
e	92	95
e	92	96
e	93	94
e	93	95
e	93	96
e	94	95
e	94	96
e	95	96
e	97	98
e	97	99
e	97	100
e	98	99
e	98	100
e	99	100
